
--- Job Lab2_intro_2020-21.gms Start 03/08/22 20:15:44 38.1.0 a1a3b545 WEX-WEI x86 64bit/MS Windows
--- Applying:
    C:\GAMS\38\gmsprmNT.txt
--- GAMS Parameters defined
    Input C:\Users\sebss\OneDrive\Escritorio\GAMS\Lab2\Lab2_intro_2020-21.gms
    PageSize 0
    ScrDir C:\Users\sebss\OneDrive\Escritorio\GAMS\Lab2\225a\
    SysDir C:\GAMS\38\
    LogOption 3
    ErrMsg 1
    ErrorLog 99
    IDE 1
    LstTitleLeftAligned 1
Licensee: GAMS Demo license for Sebastian Ramiro EntrerriG220207|0002CO-GEN
          Universidad Rey Juan Carlos, Spain                       DL059758
          C:\GAMS\38\gamslice.txt
          sr.entrerrios.2020@alumnos.urjc.es, Sebastian Ramiro Entrerrios G
          Demo license for demonstration and instructional purposes only
Processor information: 1 socket(s), 4 core(s), and 8 thread(s) available
GAMS 38.1.0   Copyright (C) 1987-2022 GAMS Development. All rights reserved
--- Starting compilation
--- Lab2_intro_2020-21.gms(61) 3 Mb
--- Starting execution: elapsed 0:00:00.010
--- Generating LP model Lab2_Ej1
--- Lab2_intro_2020-21.gms(48) 4 Mb
---   4 rows  4 columns  10 non-zeroes
--- Executing CPLEX (Solvelink=2): elapsed 0:00:00.022

IBM ILOG CPLEX   38.1.0 a1a3b545 Jan 31, 2022          WEI x86 64bit/MS Window

--- *** This solver runs with a demo license. No commercial use.
--- GMO setup time: 0.00s
--- GMO memory 0.50 Mb (peak 0.50 Mb)
--- Dictionary memory 0.00 Mb
--- Cplex 20.1.0.1 link memory 0.00 Mb (peak 0.00 Mb)
--- Starting Cplex

Version identifier: 20.1.0.1 | 2021-04-07 | 3a818710c
CPXPARAM_Advance                                 0
CPXPARAM_Simplex_Display                         2
CPXPARAM_Threads                                 1
CPXPARAM_MIP_Display                             4
CPXPARAM_MIP_Pool_Capacity                       0
CPXPARAM_MIP_Tolerances_AbsMIPGap                0
Tried aggregator 1 time.
LP Presolve eliminated 1 rows and 1 columns.
Reduced LP has 2 rows, 3 columns, and 5 nonzeros.
Presolve time = 0.00 sec. (0.00 ticks)

Iteration      Dual Objective            In Variable           Out Variable
     1 sI            0.000000                   x(B)limites_recursos( slack
     2           67440.000000                   x(A)limites_recursos( slack
     3           66400.000000                   x(C)                   x(B)

--- LP status (1): optimal.
--- Cplex Time: 0.00sec (det. 0.01 ticks)


Optimal solution found
Objective:        66400.000000

--- Reading solution for model Lab2_Ej1
*** Status: Normal completion
--- Job Lab2_intro_2020-21.gms Stop 03/08/22 20:15:44 elapsed 0:00:00.085
